
Gurobi 9.5.2 (win64, gurobi_cl) logging started Mon Oct  3 18:12:02 2022

Set parameter LogFile to value "gurobi.log"

Gurobi 9.5.2 (win64, gurobi_cl) logging started Mon Oct  3 18:18:20 2022

Set parameter LogFile to value "gurobi.log"

Gurobi 9.5.2 (win64, gurobi_cl) logging started Mon Oct  3 18:30:16 2022

Set parameter LogFile to value "gurobi.log"

Gurobi 9.5.2 (win64, gurobi_cl) logging started Mon Oct  3 18:38:30 2022

Set parameter LogFile to value "gurobi.log"

Gurobi 9.5.2 (win64, gurobi_cl) logging started Mon Oct  3 18:39:14 2022

Set parameter LogFile to value "gurobi.log"

Gurobi 9.5.2 (win64, gurobi_cl) logging started Mon Oct  3 18:47:42 2022

Set parameter LogFile to value "gurobi.log"

Gurobi 9.5.2 (win64, gurobi_cl) logging started Mon Oct  3 18:50:01 2022

Set parameter LogFile to value "gurobi.log"

Gurobi 9.5.2 (win64, gurobi_cl) logging started Mon Oct  3 18:56:53 2022

Set parameter Username
Set parameter LogFile to value "gurobi.log"
Academic license - for non-commercial use only - expires 2023-09-28
Using license file c:\gurobi952\gurobi.lic

Gurobi 9.5.2 (win64, gurobi_cl) logging started Mon Oct  3 18:57:02 2022

Set parameter Username
Set parameter LogFile to value "gurobi.log"
Academic license - for non-commercial use only - expires 2023-09-28
Using license file c:\gurobi952\gurobi.lic
